 vasp.5.4.4.18Apr17-6-g9f103f2a35 (build Nov 15 2018 18:01:47) complex
 executed on             LinuxGNU date 2019.11.19  09:50:05

 INCAR:
 POTCAR:    PAW_PBE K_pv 17Jan2003
 POTCAR:    PAW_PBE Br 06Sep2000
 POTCAR:    PAW_PBE K_pv 17Jan2003
   VRHFIN =K:  p6s1

   TITEL  = PAW_PBE K_pv 17Jan2003
   POMASS =   39.098; ZVAL   =    7.000    mass and valenz
   ENMAX  =  116.731; ENMIN  =   87.548 eV

 POTCAR:    PAW_PBE Br 06Sep2000
   VRHFIN =Br: s2p5

   TITEL  = PAW_PBE Br 06Sep2000
   POMASS =   79.904; ZVAL   =    7.000    mass and valenz
   ENMAX  =  216.285; ENMIN  =  162.214 eV

  PAW_PBE K_pv 17Jan2003                :
  PAW_PBE Br 06Sep2000                  :

 POSCAR: Generated by cif2cell 1.2.11.  :  Failed
  positions in direct lattice
 exchange correlation table for  LEXCH =        8
   RHO(1)=    0.500       N(1)  =     2000
   RHO(2)=  100.500       N(2)  =     4000

 ion  position               nearest neighbor table
   1  0.000  0.000  0.000-   2 3.35   2 3.35   2 3.35   2 3.35   2 3.35   2 3.35
   2  0.500  0.500  0.500-   1 3.35   1 3.35   1 3.35   1 3.35   1 3.35   1 3.35

  LATTYP: Found a face centered cubic cell.
 ALAT       =     6.7030760000

  Lattice vectors:

 A1 = (   0.0000000000,   3.3515380000,   3.3515380000)
 A2 = (   3.3515380000,   0.0000000000,   3.3515380000)
 A3 = (   3.3515380000,   3.3515380000,   0.0000000000)

Analysis of symmetry for initial positions (statically):
 Subroutine PRICEL returns:
 Original cell was already a primitive cell.

 Routine SETGRP: Setting up the symmetry group for a
 face centered cubic supercell.

 Subroutine GETGRP returns: Found 48 space group operations
 (whereof 48 operations were pure point group operations)
 out of a pool of 48 trial point group operations.

The static configuration has the point symmetry O_h .

Analysis of symmetry for dynamics (positions and initial velocities):
 Subroutine PRICEL returns:
 Original cell was already a primitive cell.

 Routine SETGRP: Setting up the symmetry group for a
 face centered cubic supercell.

 Subroutine GETGRP returns: Found 48 space group operations
 (whereof 48 operations were pure point group operations)
 out of a pool of 48 trial point group operations.

The dynamic configuration has the point symmetry O_h .

 Subroutine INISYM returns: Found 48 space group operations
 (whereof 48 operations are pure point group operations),
 and found     1 'primitive' translations

 KPOINTS: Gamma-point only

Automatic generation of k-mesh.
Space group operators:
 irot       det(A)        alpha          n_x          n_y          n_z        tau_x        tau_y        tau_z
    1     1.000000     0.000000     1.000000     0.000000     0.000000     0.000000     0.000000     0.000000
    2    -1.000000     0.000000     1.000000     0.000000     0.000000     0.000000     0.000000     0.000000
    3     1.000000   120.000000    -0.577350    -0.577350    -0.577350     0.000000     0.000000     0.000000
    4    -1.000000   120.000000    -0.577350    -0.577350    -0.577350     0.000000     0.000000     0.000000
    5     1.000000   120.000000     0.577350     0.577350     0.577350     0.000000     0.000000     0.000000
    6    -1.000000   120.000000     0.577350     0.577350     0.577350     0.000000     0.000000     0.000000
    7     1.000000    90.000000     0.000000     0.000000    -1.000000     0.000000     0.000000     0.000000
    8    -1.000000    90.000000     0.000000     0.000000    -1.000000     0.000000     0.000000     0.000000
    9     1.000000   180.000000     0.000000     0.707107     0.707107     0.000000     0.000000     0.000000
   10    -1.000000   180.000000     0.000000     0.707107     0.707107     0.000000     0.000000     0.000000
   11     1.000000    90.000000     0.000000     1.000000     0.000000     0.000000     0.000000     0.000000
   12    -1.000000    90.000000     0.000000     1.000000     0.000000     0.000000     0.000000     0.000000
   13     1.000000   180.000000     0.000000     0.000000     1.000000     0.000000     0.000000     0.000000
   14    -1.000000   180.000000     0.000000     0.000000     1.000000     0.000000     0.000000     0.000000
   15     1.000000   120.000000    -0.577350     0.577350     0.577350     0.000000     0.000000     0.000000
   16    -1.000000   120.000000    -0.577350     0.577350     0.577350     0.000000     0.000000     0.000000
   17     1.000000   120.000000    -0.577350     0.577350    -0.577350     0.000000     0.000000     0.000000
   18    -1.000000   120.000000    -0.577350     0.577350    -0.577350     0.000000     0.000000     0.000000
   19     1.000000    90.000000     0.000000     0.000000     1.000000     0.000000     0.000000     0.000000
   20    -1.000000    90.000000     0.000000     0.000000     1.000000     0.000000     0.000000     0.000000
   21     1.000000    90.000000    -1.000000     0.000000     0.000000     0.000000     0.000000     0.000000
   22    -1.000000    90.000000    -1.000000     0.000000     0.000000     0.000000     0.000000     0.000000
   23     1.000000   180.000000     0.707107     0.000000     0.707107     0.000000     0.000000     0.000000
   24    -1.000000   180.000000     0.707107     0.000000     0.707107     0.000000     0.000000     0.000000
   25     1.000000   120.000000     0.577350    -0.577350     0.577350     0.000000     0.000000     0.000000
   26    -1.000000   120.000000     0.577350    -0.577350     0.577350     0.000000     0.000000     0.000000
   27     1.000000   120.000000    -0.577350    -0.577350     0.577350     0.000000     0.000000     0.000000
   28    -1.000000   120.000000    -0.577350    -0.577350     0.577350     0.000000     0.000000     0.000000
   29     1.000000   180.000000     1.000000     0.000000     0.000000     0.000000     0.000000     0.000000
   30    -1.000000   180.000000     1.000000     0.000000     0.000000     0.000000     0.000000     0.000000
   31     1.000000    90.000000     0.000000    -1.000000     0.000000     0.000000     0.000000     0.000000
   32    -1.000000    90.000000     0.000000    -1.000000     0.000000     0.000000     0.000000     0.000000
   33     1.000000   180.000000     0.707107     0.707107     0.000000     0.000000     0.000000     0.000000
   34    -1.000000   180.000000     0.707107     0.707107     0.000000     0.000000     0.000000     0.000000
   35     1.000000    90.000000     1.000000     0.000000     0.000000     0.000000     0.000000     0.000000
   36    -1.000000    90.000000     1.000000     0.000000     0.000000     0.000000     0.000000     0.000000
   37     1.000000   120.000000     0.577350    -0.577350    -0.577350     0.000000     0.000000     0.000000
   38    -1.000000   120.000000     0.577350    -0.577350    -0.577350     0.000000     0.000000     0.000000
   39     1.000000   180.000000     0.000000     1.000000     0.000000     0.000000     0.000000     0.000000
   40    -1.000000   180.000000     0.000000     1.000000     0.000000     0.000000     0.000000     0.000000
   41     1.000000   120.000000     0.577350     0.577350    -0.577350     0.000000     0.000000     0.000000
   42    -1.000000   120.000000     0.577350     0.577350    -0.577350     0.000000     0.000000     0.000000
   43     1.000000   180.000000     0.000000    -0.707107     0.707107     0.000000     0.000000     0.000000
   44    -1.000000   180.000000     0.000000    -0.707107     0.707107     0.000000     0.000000     0.000000
   45     1.000000   180.000000     0.707107    -0.707107     0.000000     0.000000     0.000000     0.000000
   46    -1.000000   180.000000     0.707107    -0.707107     0.000000     0.000000     0.000000     0.000000
   47     1.000000   180.000000     0.707107     0.000000    -0.707107     0.000000     0.000000     0.000000
   48    -1.000000   180.000000     0.707107     0.000000    -0.707107     0.000000     0.000000     0.000000

 Subroutine IBZKPT returns following result:

 Found     35 irreducible k-points:

 Following reciprocal coordinates:
            Coordinates               Weight
  0.000000  0.000000  0.000000      1.000000
  0.111111  0.000000  0.000000      8.000000
  0.222222  0.000000  0.000000      8.000000
  0.333333  0.000000  0.000000      8.000000
  0.444444  0.000000  0.000000      8.000000
  0.111111  0.111111  0.000000      6.000000
  0.222222  0.111111  0.000000     24.000000
  0.333333  0.111111  0.000000     24.000000
  0.444444  0.111111  0.000000     24.000000
 -0.444444  0.111111  0.000000     24.000000
 -0.333333  0.111111  0.000000     24.000000
 -0.222222  0.111111  0.000000     24.000000
 -0.111111  0.111111  0.000000     12.000000
  0.222222  0.222222  0.000000      6.000000
  0.333333  0.222222  0.000000     24.000000
  0.444444  0.222222  0.000000     24.000000
 -0.444444  0.222222  0.000000     24.000000
 -0.333333  0.222222  0.000000     24.000000
 -0.222222  0.222222  0.000000     12.000000
  0.333333  0.333333  0.000000      6.000000
  0.444444  0.333333  0.000000     24.000000
 -0.444444  0.333333  0.000000     24.000000
 -0.333333  0.333333  0.000000     12.000000
  0.444444  0.444444  0.000000      6.000000
 -0.444444  0.444444  0.000000     12.000000
  0.333333  0.222222  0.111111     24.000000
  0.444444  0.222222  0.111111     48.000000
 -0.444444  0.222222  0.111111     48.000000
  0.444444  0.333333  0.111111     24.000000
 -0.444444  0.333333  0.111111     48.000000
 -0.333333  0.333333  0.111111     48.000000
 -0.222222  0.333333  0.111111     24.000000
 -0.444444  0.444444  0.111111     24.000000
 -0.333333  0.444444  0.111111     24.000000
 -0.333333  0.444444  0.222222     24.000000

 Following cartesian coordinates:
            Coordinates               Weight
  0.000000  0.000000  0.000000      1.000000
 -0.111111  0.111111  0.111111      8.000000
 -0.222222  0.222222  0.222222      8.000000
 -0.333333  0.333333  0.333333      8.000000
 -0.444444  0.444444  0.444444      8.000000
  0.000000  0.000000  0.222222      6.000000
 -0.111111  0.111111  0.333333     24.000000
 -0.222222  0.222222  0.444444     24.000000
 -0.333333  0.333333  0.555556     24.000000
  0.555556 -0.555556 -0.333333     24.000000
  0.444444 -0.444444 -0.222222     24.000000
  0.333333 -0.333333 -0.111111     24.000000
  0.222222 -0.222222  0.000000     12.000000
  0.000000  0.000000  0.444444      6.000000
 -0.111111  0.111111  0.555556     24.000000
 -0.222222  0.222222  0.666667     24.000000
  0.666667 -0.666667 -0.222222     24.000000
  0.555556 -0.555556 -0.111111     24.000000
  0.444444 -0.444444  0.000000     12.000000
  0.000000  0.000000  0.666667      6.000000
 -0.111111  0.111111  0.777778     24.000000
  0.777778 -0.777778 -0.111111     24.000000
  0.666667 -0.666667  0.000000     12.000000
  0.000000  0.000000  0.888889      6.000000
  0.888889 -0.888889  0.000000     12.000000
  0.000000  0.222222  0.444444     24.000000
 -0.111111  0.333333  0.555556     48.000000
  0.777778 -0.555556 -0.333333     48.000000
  0.000000  0.222222  0.666667     24.000000
  0.888889 -0.666667 -0.222222     48.000000
  0.777778 -0.555556 -0.111111     48.000000
  0.666667 -0.444444  0.000000     24.000000
[...]
   0.77777778 -0.55555556 -0.11111111       0.066
   0.66666667 -0.44444444  0.00000000       0.033
   1.00000000 -0.77777778 -0.11111111       0.033
   0.88888889 -0.66666667  0.00000000       0.033
   1.00000000 -0.55555556 -0.11111111       0.033

 k-points in reciprocal lattice and weights: Gamma-point only
   0.00000000  0.00000000  0.00000000       0.001
   0.11111111  0.00000000  0.00000000       0.011
   0.22222222  0.00000000  0.00000000       0.011
   0.33333333  0.00000000  0.00000000       0.011
   0.44444444  0.00000000  0.00000000       0.011
   0.11111111  0.11111111  0.00000000       0.008
   0.22222222  0.11111111  0.00000000       0.033
   0.33333333  0.11111111  0.00000000       0.033
   0.44444444  0.11111111  0.00000000       0.033
  -0.44444444  0.11111111  0.00000000       0.033
  -0.33333333  0.11111111  0.00000000       0.033
  -0.22222222  0.11111111  0.00000000       0.033
  -0.11111111  0.11111111  0.00000000       0.016
   0.22222222  0.22222222  0.00000000       0.008
   0.33333333  0.22222222  0.00000000       0.033
   0.44444444  0.22222222  0.00000000       0.033
  -0.44444444  0.22222222  0.00000000       0.033
  -0.33333333  0.22222222  0.00000000       0.033
  -0.22222222  0.22222222  0.00000000       0.016
   0.33333333  0.33333333  0.00000000       0.008
   0.44444444  0.33333333  0.00000000       0.033
  -0.44444444  0.33333333  0.00000000       0.033
  -0.33333333  0.33333333  0.00000000       0.016
   0.44444444  0.44444444  0.00000000       0.008
  -0.44444444  0.44444444  0.00000000       0.016
   0.33333333  0.22222222  0.11111111       0.033
   0.44444444  0.22222222  0.11111111       0.066
  -0.44444444  0.22222222  0.11111111       0.066
   0.44444444  0.33333333  0.11111111       0.033
  -0.44444444  0.33333333  0.11111111       0.066
  -0.33333333  0.33333333  0.11111111       0.066
  -0.22222222  0.33333333  0.11111111       0.033
  -0.44444444  0.44444444  0.11111111       0.033
  -0.33333333  0.44444444  0.11111111       0.033
  -0.33333333  0.44444444  0.22222222       0.033

 position of ions in fractional coordinates (direct lattice)
   0.00000000  0.00000000  0.00000000
   0.50000000  0.50000000  0.50000000

 position of ions in cartesian coordinates  (Angst):
   0.00000000  0.00000000  0.00000000
   3.35153800  3.35153800  3.35153800

 k-point  1 :   0.0000 0.0000 0.0000  plane waves:     965
 k-point  2 :   0.1111 0.0000 0.0000  plane waves:     968
 k-point  3 :   0.2222 0.0000 0.0000  plane waves:     983
 k-point  4 :   0.3333 0.0000 0.0000  plane waves:     996
 k-point  5 :   0.4444 0.0000 0.0000  plane waves:     993
 k-point  6 :   0.1111 0.1111 0.0000  plane waves:     982
 k-point  7 :   0.2222 0.1111 0.0000  plane waves:     986
 k-point  8 :   0.3333 0.1111 0.0000  plane waves:     994
 k-point  9 :   0.4444 0.1111 0.0000  plane waves:    1001
 k-point 10 :  -0.4444 0.1111 0.0000  plane waves:    1000
 k-point 11 :  -0.3333 0.1111 0.0000  plane waves:    1000
 k-point 12 :  -0.2222 0.1111 0.0000  plane waves:     987
 k-point 13 :  -0.1111 0.1111 0.0000  plane waves:     989
 k-point 14 :   0.2222 0.2222 0.0000  plane waves:     990
 k-point 15 :   0.3333 0.2222 0.0000  plane waves:    1000
 k-point 16 :   0.4444 0.2222 0.0000  plane waves:    1005
 k-point 17 :  -0.4444 0.2222 0.0000  plane waves:    1002
 k-point 18 :  -0.3333 0.2222 0.0000  plane waves:     999
 k-point 19 :  -0.2222 0.2222 0.0000  plane waves:     995
 k-point 20 :   0.3333 0.3333 0.0000  plane waves:    1018
 k-point 21 :   0.4444 0.3333 0.0000  plane waves:    1001
 k-point 22 :  -0.4444 0.3333 0.0000  plane waves:    1005
 k-point 23 :  -0.3333 0.3333 0.0000  plane waves:     991
 k-point 24 :   0.4444 0.4444 0.0000  plane waves:     998
 k-point 25 :  -0.4444 0.4444 0.0000  plane waves:    1001
 k-point 26 :   0.3333 0.2222 0.1111  plane waves:     992
 k-point 27 :   0.4444 0.2222 0.1111  plane waves:    1005
 k-point 28 :  -0.4444 0.2222 0.1111  plane waves:     998
 k-point 29 :   0.4444 0.3333 0.1111  plane waves:    1011
 k-point 30 :  -0.4444 0.3333 0.1111  plane waves:    1007
 k-point 31 :  -0.3333 0.3333 0.1111  plane waves:     997
 k-point 32 :  -0.2222 0.3333 0.1111  plane waves:    1005
 k-point 33 :  -0.4444 0.4444 0.1111  plane waves:     998
 k-point 34 :  -0.3333 0.4444 0.1111  plane waves:    1000
 k-point 35 :  -0.3333 0.4444 0.2222  plane waves:    1005

 maximum and minimum number of plane-waves per node :       259      228

 maximum number of plane-waves:      1018
 maximum index in each direction:
   IXMAX=    7   IYMAX=    6   IZMAX=    6
   IXMIN=   -7   IYMIN=   -7   IZMIN=   -7

 parallel 3D FFT for wavefunctions:
    minimum data exchange during FFTs selected (reduces bandwidth)
 parallel 3D FFT for charge:
    minimum data exchange during FFTs selected (reduces bandwidth)

 Broyden mixing: mesh for mixing (old mesh)
   NGX = 13   NGY = 13   NGZ = 13
  (NGX  = 56   NGY  = 56   NGZ  = 56)
  gives a total of   2197 points

 initial charge density was supplied:
 charge density of overlapping atoms calculated
 number of electron      14.0000000 magnetization
 keeping initial charge density in first step

 Maximum index for augmentation-charges         1663 (set IRDMAX)

 First call to EWALD:  gamma=   0.420
 Maximum number of real-space cells 3x 3x 3
 Maximum number of reciprocal cells 3x 3x 3

--------------------------------------- Iteration      1(   1)  ---------------------------------------

 BZINTS: Fermi energy:  5.369400; 14.000000 electrons
         Band energy: -74.758008;  BLOECHL correction: -0.154469

 eigenvalue-minimisations  :   924
 total energy-change (2. order) : 0.6101294E+02  (-0.4764756E+03)
 number of electron      14.0000000 magnetization
 augmentation part       14.0000000 magnetization

 Free energy of the ion-electron system (eV)
  alpha Z        PSCENC =        47.21989851
  Ewald energy   TEWEN  =      -597.32801135
  -Hartree energ DENC   =      -163.46789586
  -exchange      EXHF   =         0.00000000
  -V(xc)+E(xc)   XCENC  =        20.96758903
  PAW double counting   =       633.52009276     -624.06370881
  entropy T*S    EENTRO =         0.00000000
  eigenvalues    EBANDS =       -74.75800809
  atomic energy  EATOM  =       818.92298592
  Solvation  Ediel_sol  =         0.00000000
  free energy    TOTEN  =        61.01294211 eV

  energy without entropy =       61.01294211  energy(sigma->0) =       61.01294211

[...]

 BZINTS: Fermi energy: -3.259177; 14.000000 electrons
         Band energy:-138.145619;  BLOECHL correction:  0.000000

 eigenvalue-minimisations  :  1002
 total energy-change (2. order) :-0.6338761E+02  (-0.6166179E+02)
 number of electron      14.0000000 magnetization
 augmentation part       14.0000000 magnetization

[...]

 Broyden mixing:
  rms(total) = 0.24882E+00    rms(broyden)= 0.24879E+00
  rms(prec ) = 0.65828E+00
  weight for this iteration     100.00

[...]

 eigenvalues of (default mixing * dielectric matrix)
  average eigenvalue GAMMA=   1.7570
  1.7570

[...]

 average (electrostatic) potential at core
  the test charge radii are     1.3383  1.0178
  (the norm of the test charge is              1.0000)
       1 -14.8946       2 -65.9806

 E-fermi :  -2.9473     XC(G=0):  -7.1613     alpha+bet : -5.1265

 k-point     1 :       0.0000    0.0000    0.0000
  band No.  band energies     occupation
      1     -15.2151      2.00000
      2     -14.3107      2.00000
      3     -14.3107      2.00000
      4     -14.3107      2.00000
      5      -2.9666      2.00000
      6      -2.9666      2.00000
      7      -2.9666      2.00000
      8       1.3369      0.00000
      9       4.6267      0.00000
     10       4.6267      0.00000
     11       4.6267      0.00000
     12       5.4422      0.00000

[...]

 soft charge-density along one line, spin component           1
         0         1         2         3         4         5         6         7         8         9
 total charge-density along one line

------------------------ aborting loop because EDIFF is reached ----------------------------------------

  FORCE on cell =-STRESS in cart. coord.  units (eV):
  Direction    XX          YY          ZZ          XY          YZ          ZX
  Alpha Z    47.21990    47.21990    47.21990
  Ewald    -199.10940  -199.10940  -199.10940     0.00000     0.00000     0.00000
  Hartree    56.52482    56.52482    56.52482     0.00000     0.00000     0.00000
  E(xc)     -52.81917   -52.81917   -52.81917     0.00000     0.00000     0.00000
  Local     -14.35659   -14.35659   -14.35659    -0.00004    -0.00004    -0.00004
  n-local    26.33196    26.29393    25.84222     0.52639    -0.50772     0.33467
  augment     0.52445     0.52445     0.52445     0.00004     0.00004     0.00004
  Kinetic   136.79147   136.33545   134.75661     1.98427    -1.84590     1.24814
  Fock        0.00000     0.00000     0.00000     0.00000     0.00000     0.00000
  Total       0.10122     0.10122     0.10122     0.00000    -0.00000     0.00000
  in kB       2.15390     2.15390     2.15390     0.00000    -0.00000     0.00000

 VOLUME and BASIS-vectors are now :
  energy-cutoff  :      324.43
  volume of cell :       75.29
      direct lattice vectors                 reciprocal lattice vectors
     0.000000000  3.351538000  3.351538000    -0.149185240  0.149185240  0.149185240
     3.351538000  0.000000000  3.351538000     0.149185240 -0.149185240  0.149185240
     3.351538000  3.351538000  0.000000000     0.149185240  0.149185240 -0.149185240

[...]

 FORCES acting on ions
    electron-ion (+dipol)            ewald-force                    non-local-force                 convergence-correction
   -.164E-14 -.135E-14 0.153E-14   -.174E-15 0.447E-15 -.310E-15   0.000E+00 0.827E-24 0.000E+00   -.388E-14 -.453E-14 0.114E-14
   0.660E-12 0.719E-12 0.356E-12   -.115E-15 -.545E-15 0.684E-15   0.000E+00 -.124E-23 -.716E-23   0.107E-14 -.562E-15 0.969E-15
   0.658E-12 0.717E-12 0.358E-12   -.289E-15 -.974E-16 0.374E-15   0.000E+00 -.414E-24 -.716E-23   -.281E-14 -.509E-14 0.211E-14

 POSITION                                       TOTAL-FORCE (eV/Angst)
      0.00000      0.00000      0.00000        -0.000000     -0.000000     -0.000000
      3.35154      3.35154      3.35154         0.000000      0.000000      0.000000
    total drift:                                0.000000      0.000000      0.000000

  FREE ENERGIE OF THE ION-ELECTRON SYSTEM (eV)
  free  energy   TOTEN  =        -6.18338322 eV

  energy  without entropy=       -6.18338322  energy(sigma->0) =       -6.18338322

 Quasi-Newton relaxation of ions (Broydens 2nd method)
  g(Force)  = 0.495E-60   g(Stress)= 0.297E-03

 Reset! Starting new Quasi-Newton update for ions

[...]

 d Force = 0.0000000E+00[ 0.000E+00, 0.000E+00]  d Energy = 0.2679816E-03-0.268E-03
 d Force = 0.0000000E+00[ 0.000E+00, 0.000E+00]  d Ewald  =-0.5828109E+00 0.583E+00

[...]

 retain information from N=  1 steps
 eigenvalues of (default step * inverse Hessian matrix)
  average eigenvalue of G=   4.6980
 eigenvalue spectrum of G is  4.6980

[...]

 eigenvalue-minimisations  :   840
 total energy-change (2. order) :-0.8629347E-02  (-0.1405744E-01)
 number of electron      14.0000012 magnetization
 augmentation part        2.3344041 magnetization

[...]

 Broyden mixing:
  rms(total) = 0.22563E-02    rms(broyden)= 0.22562E-02
  rms(prec ) = 0.26118E-02
  weight for this iteration     100.00

 eigenvalues of (default mixing * dielectric matrix)
  average eigenvalue GAMMA=   1.9400
  2.6811  1.5695  1.5695

[...]

--------------------------------------- Iteration      3(   5)  ---------------------------------------

 BZINTS: Fermi energy: -2.934927; 14.000000 electrons
         Band energy:-137.410813;  BLOECHL correction:  0.000000

 eigenvalue-minimisations  :   625
 total energy-change (2. order) : 0.2262320E-05  (-0.8758926E-06)
 number of electron      14.0000012 magnetization
 augmentation part        2.3383740 magnetization

 Free energy of the ion-electron system (eV)
  alpha Z        PSCENC =        46.57583655
  Ewald energy   TEWEN  =      -594.59979177
  -Hartree energ DENC   =      -171.05717828
  -exchange      EXHF   =         0.00000000
  -V(xc)+E(xc)   XCENC  =        21.66197556
  PAW double counting   =       707.54230627     -697.81946183
  entropy T*S    EENTRO =         0.00000000
  eigenvalues    EBANDS =      -137.41081265
  atomic energy  EATOM  =       818.92298592
  Solvation  Ediel_sol  =         0.00000000
  free energy    TOTEN  =        -6.18414023 eV

  energy without entropy =       -6.18414023  energy(sigma->0) =       -6.18414023

 average (electrostatic) potential at core
  the test charge radii are     1.3383  1.0178
  (the norm of the test charge is              1.0000)
       1 -14.9629       2 -66.0092

 E-fermi :  -2.9349     XC(G=0):  -7.1073     alpha+bet : -5.0566

[...]

 k-point    35 :      -0.3333    0.4444    0.2222
  band No.  band energies     occupation
      1     -15.2427      2.00000
      2     -14.4211      2.00000
      3     -14.4207      2.00000
      4     -14.2871      2.00000
      5      -3.6443      2.00000
      6      -3.4920      2.00000
      7      -3.4259      2.00000
      8       4.0743      0.00000
      9       4.5020      0.00000
     10       5.0356      0.00000
     11       5.9160      0.00000
     12       7.3321      0.00000

 soft charge-density along one line, spin component           1
         0         1         2         3         4         5         6         7         8         9
 total charge-density along one line

------------------------ aborting loop because EDIFF is reached ----------------------------------------

  FORCE on cell =-STRESS in cart. coord.  units (eV):
  Direction    XX          YY          ZZ          XY          YZ          ZX
  Alpha Z    46.57584    46.57584    46.57584
  Ewald    -198.20000  -198.20000  -198.20000     0.00000    -0.00000     0.00000
  Hartree    57.01580    57.01580    57.01580     0.00000     0.00000     0.00000
  E(xc)     -52.79901   -52.79901   -52.79901     0.00000     0.00000     0.00000
  Local     -15.12214   -15.12214   -15.12214    -0.00004    -0.00004    -0.00004
  n-local    26.29351    26.25819    25.80908     0.51778    -0.49982     0.32956
  augment     0.53099     0.53099     0.53099     0.00004     0.00004     0.00004
  Kinetic   136.69460   136.25558   134.68521     1.94845    -1.81483     1.22685
  Fock        0.00000     0.00000     0.00000     0.00000     0.00000     0.00000
  Total       0.00019     0.00019     0.00019     0.00000     0.00000     0.00000
  in kB       0.00406     0.00406     0.00406     0.00000     0.00000     0.00000

 VOLUME and BASIS-vectors are now :
  energy-cutoff  :      324.43
  volume of cell :       76.34
      direct lattice vectors                 reciprocal lattice vectors
    -0.000000000  3.366915960  3.366915960    -0.148503855  0.148503855  0.148503855
     3.366915960 -0.000000000  3.366915960     0.148503855 -0.148503855  0.148503855
     3.366915960  3.366915960  0.000000000     0.148503855  0.148503855 -0.148503855

  length of vectors
     4.761538213  4.761538213  4.761538213     0.257216222  0.257216222  0.257216222

 FORCES acting on ions
    electron-ion (+dipol)            ewald-force                    non-local-force                 convergence-correction
   -.267E-14 -.233E-14 0.207E-14   -.696E-15 -.295E-14 0.155E-15   -.388E-24 0.646E-24 -.827E-24   -.116E-13 0.345E-14 0.879E-14
   0.663E-12 0.723E-12 0.360E-12   0.607E-16 0.207E-14 0.294E-15   0.414E-24 -.362E-24 -.466E-24   0.545E-14 -.448E-14 -.381E-14
   0.660E-12 0.721E-12 0.362E-12   -.635E-15 -.883E-15 0.449E-15   0.258E-25 0.284E-24 -.129E-23   -.619E-14 -.103E-14 0.498E-14

 POSITION                                       TOTAL-FORCE (eV/Angst)
      0.00000     -0.00000     -0.00000         0.000000     -0.000000     -0.000000
      3.36692      3.36692      3.36692        -0.000000      0.000000      0.000000
    total drift:                                0.000000      0.000000      0.000000

  FREE ENERGIE OF THE ION-ELECTRON SYSTEM (eV)
  free  energy   TOTEN  =        -6.18414023 eV

  energy  without entropy=       -6.18414023  energy(sigma->0) =       -6.18414023

 d Force = 0.0000000E+00[ 0.000E+00, 0.000E+00]  d Energy = 0.4890298E-03-0.489E-03
 d Force = 0.0000000E+00[ 0.000E+00, 0.000E+00]  d Ewald  =-0.2145409E+01 0.215E+01

 Quasi-Newton relaxation of ions (Broydens 2nd method)
  g(Force)  = 0.459E-60   g(Stress)= 0.108E-08

 retain information from N=  1 steps
 eigenvalues of (default step * inverse Hessian matrix)
  average eigenvalue of G=   4.7095
 eigenvalue spectrum of G is  4.7095

 reached required accuracy - stopping structural energy minimisation
 writing wavefunctions