 vasp.5.4.4.18Apr17-6-g9f103f2a35 (build Nov 15 2018 18:01:47) complex
 executed on             LinuxGNU date 2019.11.19  10:35:54

 INCAR:
 POTCAR:    PAW_PBE K_pv 17Jan2003
 POTCAR:    PAW_PBE Br 06Sep2000
 POTCAR:    PAW_PBE K_pv 17Jan2003
   VRHFIN =K:  p6s1

   TITEL  = PAW_PBE K_pv 17Jan2003
   POMASS =   39.098; ZVAL   =    7.000    mass and valenz
   ENMAX  =  116.731; ENMIN  =   87.548 eV

 POTCAR:    PAW_PBE Br 06Sep2000
   VRHFIN =Br: s2p5

   TITEL  = PAW_PBE Br 06Sep2000
   POMASS =   79.904; ZVAL   =    7.000    mass and valenz
   ENMAX  =  216.285; ENMIN  =  162.214 eV

  PAW_PBE K_pv 17Jan2003                :
  PAW_PBE Br 06Sep2000                  :

 POSCAR: Generated by cif2cell 1.2.11.  :  Failed
  positions in direct lattice
  velocities in cartesian coordinates
 exchange correlation table for  LEXCH =        8
   RHO(1)=    0.500       N(1)  =     2000
   RHO(2)=  100.500       N(2)  =     4000

 ion  position               nearest neighbor table
   1  0.000  0.000  0.000-   2 3.37   2 3.37   2 3.37   2 3.37   2 3.37   2 3.37
   2  0.500  0.500  0.500-   1 3.37   1 3.37   1 3.37   1 3.37   1 3.37   1 3.37

  LATTYP: Found a face centered cubic cell.
 ALAT       =     6.7338319192

  Lattice vectors:

 A1 = (  -0.0000000000,   3.3669159596,   3.3669159596)
 A2 = (   3.3669159596,  -0.0000000000,   3.3669159596)
 A3 = (   3.3669159596,   3.3669159596,   0.0000000000)

Analysis of symmetry for initial positions (statically):
 Subroutine PRICEL returns:
 Original cell was already a primitive cell.

 Routine SETGRP: Setting up the symmetry group for a
 face centered cubic supercell.

 Subroutine GETGRP returns: Found 48 space group operations
 (whereof 48 operations were pure point group operations)
 out of a pool of 48 trial point group operations.

The static configuration has the point symmetry O_h .

Analysis of symmetry for dynamics (positions and initial velocities):
 Subroutine PRICEL returns:
 Original cell was already a primitive cell.

[...]

The dynamic configuration has the point symmetry O_h .

 Subroutine INISYM returns: Found 48 space group operations
 (whereof 48 operations are pure point group operations),
 and found     1 'primitive' translations

 KPOINTS: Gamma-point only

Automatic generation of k-mesh.
Space group operators:
 irot       det(A)        alpha          n_x          n_y          n_z        tau_x        tau_y        tau_z
    1     1.000000     0.000000     1.000000     0.000000     0.000000     0.000000     0.000000     0.000000
    2    -1.000000     0.000000     1.000000     0.000000     0.000000     0.000000     0.000000     0.000000
    3     1.000000   120.000000    -0.577350    -0.577350    -0.577350     0.000000     0.000000     0.000000
    4    -1.000000   120.000000    -0.577350    -0.577350    -0.577350     0.000000     0.000000     0.000000
    5     1.000000   120.000000     0.577350     0.577350     0.577350     0.000000     0.000000     0.000000
    6    -1.000000   120.000000     0.577350     0.577350     0.577350     0.000000     0.000000     0.000000
    7     1.000000    90.000000     0.000000     0.000000    -1.000000     0.000000     0.000000     0.000000
    8    -1.000000    90.000000     0.000000     0.000000    -1.000000     0.000000     0.000000     0.000000
    9     1.000000   180.000000     0.000000     0.707107     0.707107     0.000000     0.000000     0.000000
   10    -1.000000   180.000000     0.000000     0.707107     0.707107     0.000000     0.000000     0.000000
   11     1.000000    90.000000     0.000000     1.000000     0.000000     0.000000     0.000000     0.000000
   12    -1.000000    90.000000     0.000000     1.000000     0.000000     0.000000     0.000000     0.000000
   13     1.000000   180.000000     0.000000     0.000000     1.000000     0.000000     0.000000     0.000000
   14    -1.000000   180.000000     0.000000     0.000000     1.000000     0.000000     0.000000     0.000000
   15     1.000000   120.000000    -0.577350     0.577350     0.577350     0.000000     0.000000     0.000000
   16    -1.000000   120.000000    -0.577350     0.577350     0.577350     0.000000     0.000000     0.000000
   17     1.000000   120.000000    -0.577350     0.577350    -0.577350     0.000000     0.000000     0.000000
   18    -1.000000   120.000000    -0.577350     0.577350    -0.577350     0.000000     0.000000     0.000000
   19     1.000000    90.000000     0.000000     0.000000     1.000000     0.000000     0.000000     0.000000
   20    -1.000000    90.000000     0.000000     0.000000     1.000000     0.000000     0.000000     0.000000
   21     1.000000    90.000000    -1.000000     0.000000     0.000000     0.000000     0.000000     0.000000
   22    -1.000000    90.000000    -1.000000     0.000000     0.000000     0.000000     0.000000     0.000000
   23     1.000000   180.000000     0.707107     0.000000     0.707107     0.000000     0.000000     0.000000
   24    -1.000000   180.000000     0.707107     0.000000     0.707107     0.000000     0.000000     0.000000
   25     1.000000   120.000000     0.577350    -0.577350     0.577350     0.000000     0.000000     0.000000
   26    -1.000000   120.000000     0.577350    -0.577350     0.577350     0.000000     0.000000     0.000000
   27     1.000000   120.000000    -0.577350    -0.577350     0.577350     0.000000     0.000000     0.000000
   28    -1.000000   120.000000    -0.577350    -0.577350     0.577350     0.000000     0.000000     0.000000
   29     1.000000   180.000000     1.000000     0.000000     0.000000     0.000000     0.000000     0.000000
   30    -1.000000   180.000000     1.000000     0.000000     0.000000     0.000000     0.000000     0.000000
   31     1.000000    90.000000     0.000000    -1.000000     0.000000     0.000000     0.000000     0.000000
   32    -1.000000    90.000000     0.000000    -1.000000     0.000000     0.000000     0.000000     0.000000
   33     1.000000   180.000000     0.707107     0.707107     0.000000     0.000000     0.000000     0.000000
   34    -1.000000   180.000000     0.707107     0.707107     0.000000     0.000000     0.000000     0.000000
   35     1.000000    90.000000     1.000000     0.000000     0.000000     0.000000     0.000000     0.000000
   36    -1.000000    90.000000     1.000000     0.000000     0.000000     0.000000     0.000000     0.000000
   37     1.000000   120.000000     0.577350    -0.577350    -0.577350     0.000000     0.000000     0.000000
   38    -1.000000   120.000000     0.577350    -0.577350    -0.577350     0.000000     0.000000     0.000000
   39     1.000000   180.000000     0.000000     1.000000     0.000000     0.000000     0.000000     0.000000
   40    -1.000000   180.000000     0.000000     1.000000     0.000000     0.000000     0.000000     0.000000
   41     1.000000   120.000000     0.577350     0.577350    -0.577350     0.000000     0.000000     0.000000
   42    -1.000000   120.000000     0.577350     0.577350    -0.577350     0.000000     0.000000     0.000000
   43     1.000000   180.000000     0.000000    -0.707107     0.707107     0.000000     0.000000     0.000000
   44    -1.000000   180.000000     0.000000    -0.707107     0.707107     0.000000     0.000000     0.000000
   45     1.000000   180.000000     0.707107    -0.707107     0.000000     0.000000     0.000000     0.000000
   46    -1.000000   180.000000     0.707107    -0.707107     0.000000     0.000000     0.000000     0.000000
   47     1.000000   180.000000     0.707107     0.000000    -0.707107     0.000000     0.000000     0.000000
   48    -1.000000   180.000000     0.707107     0.000000    -0.707107     0.000000     0.000000     0.000000

 Subroutine IBZKPT returns following result:

 Found     35 irreducible k-points:

 Following reciprocal coordinates:
            Coordinates               Weight
  0.000000  0.000000  0.000000      1.000000
  0.111111  0.000000  0.000000      8.000000
  0.222222  0.000000  0.000000      8.000000
  0.333333  0.000000  0.000000      8.000000
  0.444444  0.000000  0.000000      8.000000
  0.111111  0.111111  0.000000      6.000000
  0.222222  0.111111  0.000000     24.000000
  0.333333  0.111111  0.000000     24.000000
  0.444444  0.111111  0.000000     24.000000
 -0.444444  0.111111  0.000000     24.000000
 -0.333333  0.111111  0.000000     24.000000
 -0.222222  0.111111  0.000000     24.000000
 -0.111111  0.111111  0.000000     12.000000
  0.222222  0.222222  0.000000      6.000000
  0.333333  0.222222  0.000000     24.000000
  0.444444  0.222222  0.000000     24.000000
 -0.444444  0.222222  0.000000     24.000000
 -0.333333  0.222222  0.000000     24.000000
 -0.222222  0.222222  0.000000     12.000000
  0.333333  0.333333  0.000000      6.000000
  0.444444  0.333333  0.000000     24.000000
 -0.444444  0.333333  0.000000     24.000000
 -0.333333  0.333333  0.000000     12.000000
  0.444444  0.444444  0.000000      6.000000
 -0.444444  0.444444  0.000000     12.000000
  0.333333  0.222222  0.111111     24.000000
  0.444444  0.222222  0.111111     48.000000
 -0.444444  0.222222  0.111111     48.000000
  0.444444  0.333333  0.111111     24.000000
 -0.444444  0.333333  0.111111     48.000000
 -0.333333  0.333333  0.111111     48.000000
 -0.222222  0.333333  0.111111     24.000000
 -0.444444  0.444444  0.111111     24.000000
 -0.333333  0.444444  0.111111     24.000000
 -0.333333  0.444444  0.222222     24.000000

 Following cartesian coordinates:
            Coordinates               Weight
  0.000000  0.000000  0.000000      1.000000
 -0.110604  0.110604  0.110604      8.000000
 -0.221207  0.221207  0.221207      8.000000
 -0.331811  0.331811  0.331811      8.000000
 -0.442415  0.442415  0.442415      8.000000
  0.000000  0.000000  0.221207      6.000000
 -0.110604  0.110604  0.331811     24.000000
 -0.221207  0.221207  0.442415     24.000000
 -0.331811  0.331811  0.553018     24.000000
  0.553018 -0.553018 -0.331811     24.000000
  0.442415 -0.442415 -0.221207     24.000000
  0.331811 -0.331811 -0.110604     24.000000
  0.221207 -0.221207  0.000000     12.000000
  0.000000  0.000000  0.442415      6.000000
 -0.110604  0.110604  0.553018     24.000000
 -0.221207  0.221207  0.663622     24.000000
  0.663622 -0.663622 -0.221207     24.000000
  0.553018 -0.553018 -0.110604     24.000000
  0.442415 -0.442415  0.000000     12.000000
  0.000000  0.000000  0.663622      6.000000
 -0.110604  0.110604  0.774225     24.000000
  0.774225 -0.774225 -0.110604     24.000000
  0.663622 -0.663622  0.000000     12.000000
  0.000000  0.000000  0.884829      6.000000
  0.884829 -0.884829  0.000000     12.000000
  0.000000  0.221207  0.442415     24.000000
 -0.110604  0.331811  0.553018     48.000000
  0.774225 -0.553018 -0.331811     48.000000
  0.000000  0.221207  0.663622     24.000000
  0.884829 -0.663622 -0.221207     48.000000
  0.774225 -0.553018 -0.110604     48.000000
  0.663622 -0.442415  0.000000     24.000000
  0.995433 -0.774225 -0.110604     24.000000
  0.884829 -0.663622  0.000000     24.000000
  0.995433 -0.553018 -0.110604     24.000000

 TETIRR: Found    115 inequivalent tetrahedra from     4374

 Subroutine IBZKPT_HF returns following result:

[...]

  FORCE on cell =-STRESS in cart. coord.  units (eV):
  Direction    XX          YY          ZZ          XY          YZ          ZX
  Alpha Z    46.57584    46.57584    46.57584
  Ewald    -198.20000  -198.20000  -198.20000     0.00000     0.00000     0.00000
  Hartree    57.01784    57.01784    57.01784     0.00000     0.00000     0.00000
  E(xc)     -52.79925   -52.79925   -52.79925     0.00000     0.00000     0.00000
  Local     -15.12302   -15.12302   -15.12302    -0.00004    -0.00004    -0.00004
  n-local    26.29797    26.26260    25.81366     0.51776    -0.49965     0.32955
  augment     0.53250     0.53250     0.53250     0.00004     0.00004     0.00004
  Kinetic   136.69724   136.25812   134.68811     1.94805    -1.81448     1.22665
  Fock        0.00000     0.00000     0.00000     0.00000     0.00000     0.00000
  Total       0.00981     0.00981     0.00981     0.00000    -0.00000    -0.00000
  in kB       0.20583     0.20583     0.20583     0.00000    -0.00000    -0.00000

 VOLUME and BASIS-vectors are now :
  energy-cutoff  :      324.43
  volume of cell :       76.34
      direct lattice vectors                 reciprocal lattice vectors
    -0.000000000  3.366915960  3.366915960    -0.148503855  0.148503855  0.148503855
     3.366915960 -0.000000000  3.366915960     0.148503855 -0.148503855  0.148503855
     3.366915960  3.366915960  0.000000000     0.148503855  0.148503855 -0.148503855

  length of vectors
     4.761538213  4.761538213  4.761538213     0.257216222  0.257216222  0.257216222

 FORCES acting on ions
    electron-ion (+dipol)            ewald-force                    non-local-force                 convergence-correction
   -.251E-14 -.344E-14 0.347E-15   0.507E-16 -.209E-14 -.115E-15   0.129E-25 -.129E-25 0.000E+00   -.246E-14 -.791E-14 -.164E-15
   0.660E-12 0.721E-12 0.359E-12   0.202E-15 0.255E-14 -.251E-15   0.404E-27 -.121E-26 0.000E+00   0.139E-14 -.193E-14 -.208E-14
   0.658E-12 0.718E-12 0.359E-12   0.252E-15 0.453E-15 -.366E-15   0.133E-25 -.141E-25 0.000E+00   -.107E-14 -.984E-14 -.224E-14

 POSITION                                       TOTAL-FORCE (eV/Angst)
      0.00000      0.00000      0.00000         0.000000      0.000000     -0.000000
      3.36692      3.36692      3.36692        -0.000000     -0.000000      0.000000
    total drift:                                0.000000      0.000000      0.000000

  FREE ENERGIE OF THE ION-ELECTRON SYSTEM (eV)
  free  energy   TOTEN  =        -6.18424795 eV

  energy  without entropy=       -6.18424795  energy(sigma->0) =       -6.18424795

 Found     2 degrees of freedom:

     directions for atom     1:  x
     directions for atom     2:  x
 Linear response reoptimize wavefunctions
 Linear response G [H, r] |phi>, progress :
  Direction:   1

----------------------------------------- Iteration    1(   1)  ---------------------------------------

  free energy    TOTEN  =       -59.03180358 eV

[...]

 Linear response G [H, r] |phi>, progress :
  Direction:   2

[...]

 Linear response G [H, r] |phi>, progress :
  Direction:   3

[...]

  free energy    TOTEN  =       -55.69878284 eV

[...]

 Linear response to external field (no local field effect), progress :
  Direction:   1
  LATTYP: Found a face centered cubic cell.
 ALAT       =     6.7338319192

[...]

The dynamic configuration has the point symmetry C_4v.

[...]

 Free energy of the ion-electron system (eV)
  -Hartree energ DENC   =        -0.00000000
  -V(xc)+E(xc)   XCENC  =        -0.00000000
  PAW double counting   =         0.00000000        0.00000000
  entropy T*S    EENTRO =         0.00000000
  eigenvalues    EBANDS =        -0.40380602
  free energy    TOTEN  =        -0.40380602 eV

  energy without entropy =       -0.40380602

[...]

 change of polarisation eV/A/(eV/A) component  1 :     0.828     0.102     0.049
 dielectric tensor                  component  1 :     2.962     0.242     0.117

[...]

 Linear response to external field (no local field effect), progress :
  Direction:   3
  LATTYP: Found a face centered cubic cell.
 ALAT       =     6.7338319192

[...]

 HEAD OF MICROSCOPIC STATIC DIELECTRIC TENSOR (INDEPENDENT PARTICLE, excluding Hartree and local field effects)
           2.758646    -0.000000     0.000000
           0.000000     2.758646    -0.000000
          -0.000000    -0.000000     2.758646

 Linear response to external field, progress :
  Direction:   1
  LATTYP: Found a face centered cubic cell.
 ALAT       =     6.7338319192

[...]

 PIEZOELECTRIC TENSOR FIELD DIRECTION 1  (e Angst)
     0.00031 -0.00000  0.00000           ( -0.00000 -0.00000  0.00000)
    -0.00000 -0.00018 -0.00000           ( -0.00000  0.00000 -0.00000)
     0.00000 -0.00000 -0.00018           (  0.00000 -0.00000  0.00000)

 PIEZOELECTRIC TENSOR FIELD DIRECTION 1  (C/m^2)
     0.00007 -0.00000  0.00000
    -0.00000 -0.00004 -0.00000
     0.00000 -0.00000 -0.00004

      POSITION         DIRECTION 1           BORN EFFECTIVE CHARGE    (rigid.aug.   ionic)
      0.00000      0.00000      0.00000     1.14002 -0.00000 -0.00000 ( -3.72028  7.00000)
      3.36692      3.36692      3.36692    -1.13995 -0.00000 -0.00000 (  1.38179  7.00000)
    total drift (improves with k-points):   0.00007  0.00000  0.00000

[...]

 Linear response to external field, progress :
  Direction:   3
  LATTYP: Found a face centered cubic cell.
 ALAT       =     6.7338319192

[...]

 change of polarisation eV/A/(eV/A) component  3 :     0.076    -0.072     0.627
 dielectric tensor                  component  3 :     0.179    -0.170     2.486

 PIEZOELECTRIC TENSOR FIELD DIRECTION 3  (e Angst)
    -0.00007 -0.00000  0.00000           (  0.00000 -0.00000 -0.00000)
    -0.00000 -0.00007 -0.00000           ( -0.00000  0.00000  0.00000)
    -0.00000  0.00000 -0.00015           ( -0.00000  0.00000  0.00001)

 PIEZOELECTRIC TENSOR FIELD DIRECTION 3  (C/m^2)
    -0.00001 -0.00000  0.00000
    -0.00000 -0.00001 -0.00000
    -0.00000  0.00000 -0.00003

      POSITION         DIRECTION 3           BORN EFFECTIVE CHARGE    (rigid.aug.   ionic)
      0.00000      0.00000      0.00000    -0.00000 -0.00000  1.14002 ( -3.72028  7.00000)
      3.36692      3.36692      3.36692    -0.00000 -0.00000 -1.13995 (  1.38179  7.00000)
    total drift (improves with k-points):   0.00000  0.00000  0.00007

[...]

 MACROSCOPIC STATIC DIELECTRIC TENSOR (including local field effects in DFT)
           2.485855     0.000000     0.000000
           0.000000     2.485855     0.000000
          -0.000000    -0.000000     2.485855

 Linear response:
   Degrees of freedom DOF   =            2
 Linear response progress:
  Degree of freedom:   1/  2
  LATTYP: Found a face centered cubic cell.
 ALAT       =     6.7338319192

[...]

 BZINTS: Fermi energy: -2.935191; 14.000000 electrons
         Band energy:-137.418153;  BLOECHL correction:  0.000000
 BZINTS: Fermi energy: -2.935155; 14.000000 electrons
         Band energy:-137.418153;  BLOECHL correction:  0.000000

[...]

 INTERNAL STRAIN TENSOR  FOR ION    1  DIRECTION 1   (eV/Angst):
    -0.00435  0.00000  0.00000
    -0.00000  0.00181  0.00000
     0.00000  0.00000  0.00181

 POSITION                   FORCE-CONSTANT FOR ION    1 DIRECTION 1 (eV/Angst/Angst)
      0.00000      0.00000      0.00000        -0.984210      0.000000      0.000000
      3.36692      3.36692      3.36692         0.984210      0.000000      0.000000
    total drift:                                0.000000      0.000000      0.000000

 BORN EFFECTIVE CHARGE FOR ION    1 DIRECTION 1 :   1.140   0.000  -0.000
                   rigid augmentation           :  -3.720   0.000   0.000
                   ionic contribution           :   7.000   0.000   0.000
                   Berry contribution           :  -2.140   0.000  -0.000

 Linear response progress:
  Degree of freedom:   2/  2
  LATTYP: Found a face centered cubic cell.
 ALAT       =     6.7338319192

[...]

The dynamic configuration has the point symmetry C_4v.

[...]

----------------------------------------- Iteration    7(  11)  ---------------------------------------

 BZINTS: Fermi energy: -2.935163; 14.000000 electrons
         Band energy:-137.418148;  BLOECHL correction:  0.000000
 BZINTS: Fermi energy: -2.935192; 14.000000 electrons
         Band energy:-137.418158;  BLOECHL correction:  0.000000

 Broyden mixing:
  rms(total) = 0.55767E-05    rms(broyden)= 0.55737E-05
  rms(prec ) = 0.16186E-04
  weight for this iteration     100.00

 eigenvalues of (default mixing * dielectric matrix)
  average eigenvalue GAMMA=   1.9379
  3.2533  3.0519  2.6815  2.3889  1.6793  1.5564  1.0062  1.0062  0.8172

 Free energy of the ion-electron system (eV)
  -Hartree energ DENC   =        -0.07633809
  -V(xc)+E(xc)   XCENC  =         0.00103315
  PAW double counting   =         0.00000723       -0.00000722
  entropy T*S    EENTRO =         0.00000000
  eigenvalues    EBANDS =        -0.07000652
  free energy    TOTEN  =        -0.14531144 eV

  energy without entropy =       -0.14531144

[...]

 k-point  75 :       0.8889    0.4444    0.4444
  band No.  band energies     occupation
      1       0.0002      0.00000
      2      -0.0000      0.00000
      3      -0.0000      0.00000
      4      -0.0000      0.00000
      5       0.0001      0.00000
      6       0.0001      0.00000
      7       0.0001      0.00000
      8       0.0000      0.00000
      9       0.0000      0.00000
     10       0.0001      0.00000
     11       0.0000      0.00000
     12       0.0008      0.00000

------------------------ aborting loop because EDIFF is reached ----------------------------------------

 INTERNAL STRAIN TENSOR  FOR ION    2  DIRECTION 1   (eV/Angst):
     0.00415 -0.00000  0.00000
    -0.00000 -0.00112 -0.00000
     0.00000 -0.00000 -0.00112

 POSITION                   FORCE-CONSTANT FOR ION    2 DIRECTION 1 (eV/Angst/Angst)
      0.00000      0.00000      0.00000         0.996020      0.000000      0.000000
      3.36692      3.36692      3.36692        -0.996020      0.000000      0.000000
    total drift:                                0.000000      0.000000      0.000000

 BORN EFFECTIVE CHARGE FOR ION    2 DIRECTION 1 :  -1.140   0.000   0.000
                   rigid augmentation           :   1.382   0.000   0.000
                   ionic contribution           :   7.000   0.000   0.000
                   Berry contribution           :  -9.522   0.000   0.000

  LATTYP: Found a face centered cubic cell.
 ALAT       =     6.7338319192

  Lattice vectors:

 A1 = (  -0.0000000000,   3.3669159596,   3.3669159596)
 A2 = (   3.3669159596,  -0.0000000000,   3.3669159596)
 A3 = (   3.3669159596,   3.3669159596,   0.0000000000)

Analysis of symmetry for initial positions (statically):
 Subroutine PRICEL returns:
 Original cell was already a primitive cell.

[...]

The static configuration has the point symmetry O_h .

Analysis of symmetry for dynamics (positions and initial velocities):
 Subroutine PRICEL returns:
 Original cell was already a primitive cell.

 Routine SETGRP: Setting up the symmetry group for a
 face centered cubic supercell.

 Subroutine GETGRP returns: Found 48 space group operations
 (whereof 48 operations were pure point group operations)
 out of a pool of 48 trial point group operations.

The dynamic configuration has the point symmetry O_h .

 Subroutine INISYM returns: Found 48 space group operations
 (whereof 48 operations are pure point group operations),
 and found     1 'primitive' translations

 MACROSCOPIC STATIC DIELECTRIC TENSOR (including local field effects in DFT)
           2.485855     0.000000     0.000000
           0.000000     2.485855     0.000000
          -0.000000    -0.000000     2.485855

 PIEZOELECTRIC TENSOR (including local field effects)  for field in x, y, z        (e  Angst)
          XX          YY          ZZ          XY          YZ          ZX
  x     0.00031    -0.00018    -0.00018    -0.00000    -0.00000     0.00000
  y    -0.00007    -0.00016    -0.00007    -0.00000     0.00000    -0.00000
  z    -0.00007    -0.00007    -0.00015    -0.00000     0.00000     0.00000

 PIEZOELECTRIC TENSOR (including local field effects)  for field in x, y, z        (C/m^2)
          XX          YY          ZZ          XY          YZ          ZX
  x     0.00000     0.00000     0.00000     0.00000     0.00000     0.00000
  y     0.00000     0.00000     0.00000     0.00000     0.00000     0.00000
  z     0.00000     0.00000     0.00000     0.00000     0.00000     0.00000

 BORN EFFECTIVE CHARGES (including local field effects) (in e, cummulative output)
 ion    1
    1     1.13999    -0.00000    -0.00000
    2    -0.00000     1.13998    -0.00000
    3    -0.00000    -0.00000     1.13999
 ion    2
    1    -1.13999    -0.00000    -0.00000
    2    -0.00000    -1.13998    -0.00000
    3    -0.00000    -0.00000    -1.13999

 INTERNAL STRAIN TENSOR FOR ION    1 for displacements in x,y,z  (eV/Angst):
          X           Y           Z          XY          YZ          ZX
  x     0.00000     0.00000     0.00000     0.00000     0.00000     0.00000
  y     0.00000     0.00000     0.00000     0.00000     0.00000     0.00000
  z     0.00000     0.00000     0.00000     0.00000     0.00000     0.00000

 INTERNAL STRAIN TENSOR FOR ION    2 for displacements in x,y,z  (eV/Angst):
          X           Y           Z          XY          YZ          ZX
  x     0.00000     0.00000     0.00000     0.00000     0.00000     0.00000
  y     0.00000     0.00000     0.00000     0.00000     0.00000     0.00000
  z     0.00000     0.00000     0.00000     0.00000     0.00000     0.00000

 SECOND DERIVATIVES (NOT SYMMETRIZED)
               1X          1Y          1Z          2X          2Y          2Z
  1X    -0.984210    0.000000    0.000000    0.984210    0.000000    0.000000
  1Y     0.000000   -0.984210    0.000000    0.000000    0.984210    0.000000
  1Z     0.000000    0.000000   -0.984210    0.000000    0.000000    0.984210
  2X     0.996020    0.000000    0.000000   -0.996020    0.000000    0.000000
  2Y     0.000000    0.996020    0.000000    0.000000   -0.996020    0.000000
  2Z     0.000000    0.000000    0.996020    0.000000    0.000000   -0.996020

 Eigenvectors and eigenvalues of the dynamical matrix

   1 f  =    3.032958 THz    19.056636 2PiTHz  101.168582 cm-1    12.543310 meV
             X         Y         Z           dx          dy          dz
      0.000000  0.000000  0.000000     0.000000    0.817809    0.000000
      3.366916  3.366916  3.366916    -0.000000   -0.575490    0.000000

[...]

   3 f  =    3.032958 THz    19.056636 2PiTHz  101.168582 cm-1    12.543310 meV
             X         Y         Z           dx          dy          dz
      0.000000  0.000000  0.000000     0.817809   -0.000000    0.000000
      3.366916  3.366916  3.366916    -0.575490    0.000000    0.000000

   4 f/i=    0.008513 THz     0.053491 2PiTHz    0.283973 cm-1     0.035208 meV
             X         Y         Z           dx          dy          dz
      0.000000  0.000000  0.000000     0.350506    0.456437   -0.000000
      3.366916  3.366916  3.366916     0.498091    0.648627   -0.000000

[...]

   6 f/i=    0.008513 THz     0.053491 2PiTHz    0.283973 cm-1     0.035208 meV
             X         Y         Z           dx          dy          dz
      0.000000  0.000000  0.000000    -0.456437    0.350506    0.000000
      3.366916  3.366916  3.366916    -0.648627    0.498091    0.000000

 MACROSCOPIC STATIC DIELECTRIC TENSOR IONIC CONTRIBUTION
           3.111321     0.000000     0.000000
           0.000000     3.111271     0.000000
           0.000000     0.000000     3.111320

 ELASTIC MODULI CONTR FROM IONIC RELAXATION (kBar)
 Direction    XX          YY          ZZ          XY          YZ          ZX
 XX           0.0000      0.0000      0.0000      0.0000      0.0000      0.0000
 YY           0.0000      0.0000      0.0000      0.0000      0.0000      0.0000
 ZZ           0.0000      0.0000      0.0000      0.0000      0.0000      0.0000
 XY           0.0000      0.0000      0.0000      0.0000      0.0000      0.0000
 YZ           0.0000      0.0000      0.0000      0.0000      0.0000      0.0000
 ZX           0.0000      0.0000      0.0000      0.0000      0.0000      0.0000

 PIEZOELECTRIC TENSOR IONIC CONTR  for field in x, y, z        (C/m^2)
          XX          YY          ZZ          XY          YZ          ZX
  x     0.00000     0.00000     0.00000     0.00000     0.00000     0.00000
  y     0.00000     0.00000     0.00000     0.00000     0.00000     0.00000
  z     0.00000     0.00000     0.00000     0.00000     0.00000     0.00000

 writing wavefunctions
 BZINTS: Fermi energy: -2.935190; 14.000000 electrons
         Band energy:-137.418153;  BLOECHL correction:  0.000000